/vasptmp/8LiH00001x00003/
1
8.0805 0 0 
-0.116332 8.77828 0 
0.992084 3.07925 6.3039 
3 3 
Direct
0.679785 0.692614 0.771656 
0.119499 0.209146 0.616555 
0.580429 0.856556 0.169955 
0.872621 0.959105 0.512481 
0.716078 0.153642 0.08184 
0.672454 0.351611 0.709959 

