K8-40GPA-reopt                          
   1.00000000000000     
     5.8679532736861075    0.0000000000000000    0.0000000000000000
     0.0000000000000000    3.5192614938291165    0.0000000000000000
     0.0000000000000000    0.0000000000000000    6.7256589970126157
   8
Direct
  0.1422025111343430  0.7500000000000000  0.4331511578653959
  0.5339967827798091  0.7500000000000000  0.6575325302929400
  0.3577974888656570  0.2500000000000000  0.9331511578653959
  0.9660032172201909  0.2500000000000000  0.1575325302929400
  0.8577974888656570  0.2500000000000000  0.5668488421346041
  0.4660032172201909  0.2500000000000000  0.3424674697070600
  0.6422025111343430  0.7500000000000000  0.0668488421346041
  0.0339967827798091  0.7500000000000000  0.8424674697070600
 
  0.00000000E+00  0.00000000E+00  0.00000000E+00
  0.00000000E+00  0.00000000E+00  0.00000000E+00
  0.00000000E+00  0.00000000E+00  0.00000000E+00
  0.00000000E+00  0.00000000E+00  0.00000000E+00
  0.00000000E+00  0.00000000E+00  0.00000000E+00
  0.00000000E+00  0.00000000E+00  0.00000000E+00
  0.00000000E+00  0.00000000E+00  0.00000000E+00
  0.00000000E+00  0.00000000E+00  0.00000000E+00
