#P Gfinput IOP(6/7=3) HF/6-31G opt freq=hpmodes



0  1
C       -0.00092       -0.00000       -0.00289
H       -0.62971       -0.93095       -0.19667
H       -0.62951        0.93099       -0.19709
H        0.92146       -0.00025       -0.67283
H        0.34326        0.00021        1.08392

